 H  C 
 1.0000000000000000
     6.9802999999999997    0.0000000000000000    0.0000000000000000
     0.0000000000000000    7.6727999999999996    0.0000000000000000
     0.0000000000000000    0.0000000000000000    9.5691000000000006
  44  24
Cartesian
  1.3866296146999999  0.6753061464000000  0.2379452406000000
  1.3830487208000000  3.2015755464000004  0.2413996857000000
  1.3934912496000000  5.7714494687999993  0.2530644186000000
  1.3764383766999997  0.6165171528000000  4.9947831270000007
  1.3449642039999996  3.1836672311999998  5.0690967576000014
  1.3501156653999997  5.7253436135999998  5.0777950695000005
  0.0578317855000000  0.6440011224000000  1.3891271087999999
  0.0509212885000000  3.2331414455999998  1.3890696942000003
  0.0424890861000000  5.7714417959999995  1.3787542044000001
  0.0736770665000000  0.6110157552000000  6.1756770507000001
  6.9713652159999997  3.1760788319999995  6.1926717722999998
  6.9747367008999994  5.7364308095999998  6.1937626497000009
  5.5914855513999999  1.8787387895999998  4.5470066616000002
  5.5840236107000001  4.4563392215999995  4.5328539627000000
  5.5978446046999988  7.0250161871999994  4.5364328061000005
  5.6025353662999988  1.9390086335999999  9.3594027426000004
  5.6299539846999984  4.5000051263999996  9.2694819099000014
  5.6340095390000000  7.0440907679999993  9.2776539213000007
  6.9183986996000000  1.9085399447999998  3.3938439897000001
  6.9302023868999987  4.4549811359999998  3.4014131478000000
  6.9323802404999997  6.9964503527999993  3.3916048203000000
  6.9030839213999986  1.9414332383999997  8.1763079258999998
  0.0068057925000000  4.4910049320000001  8.1550262475000004
  0.0105332727000000  7.0526689584000000  8.1576290427000000
  3.3899547738000000  1.9241310744000002  3.7821867750000000
  3.3805802308999993  4.4773243296000000  3.7830001485000002
  3.3893056058999997  7.0352056655999995  3.7853732853000004
  3.2153984116999998  1.9149927696000002  8.5565648217000003
  2.8321171189999998  4.4953937736000000  8.4446541972000002
  2.9540769205999995  7.0019670959999996  8.4403768095000000
  2.1069477125999994  1.9214993039999999  2.5805757497999999
  2.1054678889999998  4.4807463984000000  2.5745854932000003
  2.1083018907999995  7.0348834079999998  2.5819249928999999
  2.0374727867000000  1.7648053823999998  7.2659611665000003
  3.5923206511000001  0.6395815896000000  0.9985929996000003
  3.5919227739999999  3.2022200615999998  0.9958083915000001
  3.6024002042999999  5.7591346247999997  0.9986599833000001
  3.7629680452000001  0.6431340960000000  5.7943675538999999
  4.0259997097999998  3.2267883671999997  5.9094838268999998
  4.1537950421999996  5.7361545887999998  5.9062111947000018
  4.8748670124999984  0.6422363783999999  2.2006346343000001
  4.8734639721999997  3.2018594399999998  2.1986346924000002
  4.8766260480999994  5.7562112880000003  2.2078305975000001
  4.9430436026000004  0.7933675200000000  7.0832104947000003
  0.2850684717000000  0.6584566776000000  0.3078188088000001
  0.2812781688000000  3.2179416287999998  0.3083833857000000
  0.2902338937000000  5.7726157343999995  0.3017807067000001
  0.2772924174999999  0.6161565312000000  5.0897373063000000
  0.2431378096000000  3.1753038791999999  5.1170379486000011
  0.2480309999000000  5.7316429823999995  5.1188847849000005
  6.6928512460000000  1.8955268759999999  4.4755254846000003
  6.6870715575999995  4.4545207679999992  4.4794775229000008
  6.6996500581999996  7.0096629144000007  4.4717265518999998
  6.7013741923000003  1.9379497872000000  9.2626495725000009
  6.7321084531999995  4.4953247184000000  9.2295691937999997
  6.7359755394000000  7.0522546272000000  9.2326887204000005
  3.2042648331999999  1.9219673448000001  2.6926203417000001
  3.2021916840999998  4.4792655479999999  2.6925533580000005
  3.2055073265999998  7.0361877840000000  2.6954527953000005
  3.1172484133999991  1.8992712024000002  7.4572761828000003
  3.3202494979999995  4.4644877351999996  7.4621085783000005
  3.4408411607999998  6.9809206055999997  7.4565872076000010
  3.7776545963999997  0.6420599040000000  2.0881881402000002
  3.7761887333999997  3.2011612152000004  2.0856236214000003
  3.7799860165999997  5.7576691199999992  2.0892407412000003
  3.8627723746000000  0.6589477368000000  6.8936944692000006
  3.5406664311000000  3.2490241416000001  6.8938188675000003
  3.6641479381000002  5.7657792696000003  6.8881252530000001
